p cnf 139 283
c x00 -> 136
c x01 -> 109
c x02 -> 110
c x03 -> 137
c x04 -> 139
c x05 -> 115
c x06 -> 112
c x07 -> 138
c x08 -> 135
c x09 -> 107
c x10 -> 104
c x11 -> 134
c x12 -> 132
c x13 -> 101
c x14 -> 102
c x15 -> 133
2 3 -1 0
-2 -3 -1 0
2 -3 1 0
-2 3 1 0
4 -2 0
5 -2 0
-4 -5 2 0
6 -3 0
7 -3 0
-6 -7 3 0
8 4 0
-8 -4 0
9 5 0
-9 -5 0
10 6 0
-10 -6 0
11 7 0
-11 -7 0
12 -8 0
13 -8 0
-12 -13 8 0
14 -9 0
15 -9 0
-14 -15 9 0
16 -10 0
17 -10 0
-16 -17 10 0
18 -11 0
19 -11 0
-18 -19 11 0
20 -12 0
21 -12 0
-20 -21 12 0
15 13 0
-15 -13 0
12 14 0
-12 -14 0
22 -15 0
23 -15 0
-22 -23 15 0
24 -16 0
25 -16 0
-24 -25 16 0
19 17 0
-19 -17 0
16 18 0
-16 -18 0
26 -19 0
27 -19 0
-26 -27 19 0
28 20 0
-28 -20 0
29 21 0
-29 -21 0
30 22 0
-30 -22 0
31 23 0
-31 -23 0
32 24 0
-32 -24 0
33 25 0
-33 -25 0
34 26 0
-34 -26 0
35 27 0
-35 -27 0
36 -28 0
37 -28 0
-36 -37 28 0
38 -29 0
39 -29 0
-38 -39 29 0
40 -30 0
41 -30 0
-40 -41 30 0
42 -31 0
43 -31 0
-42 -43 31 0
44 -32 0
45 -32 0
-44 -45 32 0
46 -33 0
47 -33 0
-46 -47 33 0
48 -34 0
49 -34 0
-48 -49 34 0
50 -35 0
51 -35 0
-50 -51 35 0
52 36 0
-52 -36 0
53 37 0
-53 -37 0
54 38 0
-54 -38 0
55 39 0
-55 -39 0
56 40 0
-56 -40 0
57 41 0
-57 -41 0
58 42 0
-58 -42 0
59 43 0
-59 -43 0
60 44 0
-60 -44 0
61 45 0
-61 -45 0
62 46 0
-62 -46 0
63 47 0
-63 -47 0
64 48 0
-64 -48 0
65 49 0
-65 -49 0
66 50 0
-66 -50 0
67 51 0
-67 -51 0
68 -52 0
69 -52 0
-68 -69 52 0
70 -53 0
71 -53 0
-70 -71 53 0
72 -54 0
73 -54 0
-72 -73 54 0
74 -55 0
75 -55 0
-74 -75 55 0
76 -56 0
77 -56 0
-76 -77 56 0
78 -57 0
79 -57 0
-78 -79 57 0
80 -58 0
81 -58 0
-80 -81 58 0
82 -59 0
83 -59 0
-82 -83 59 0
84 -60 0
85 -60 0
-84 -85 60 0
86 -61 0
87 -61 0
-86 -87 61 0
88 -62 0
89 -62 0
-88 -89 62 0
90 -63 0
91 -63 0
-90 -91 63 0
92 -64 0
93 -64 0
-92 -93 64 0
94 -65 0
95 -65 0
-94 -95 65 0
96 -66 0
97 -66 0
-96 -97 66 0
98 -67 0
99 -67 0
-98 -99 67 0
70 68 0
-70 -68 0
100 -69 0
101 -69 0
-100 -101 69 0
102 -70 0
103 -70 0
-102 -103 70 0
69 71 0
-69 -71 0
74 72 0
-74 -72 0
75 73 0
-75 -73 0
104 -74 0
105 -74 0
-104 -105 74 0
106 -75 0
107 -75 0
-106 -107 75 0
108 -76 0
109 -76 0
-108 -109 76 0
79 77 0
-79 -77 0
76 78 0
-76 -78 0
110 -79 0
111 -79 0
-110 -111 79 0
82 80 0
-82 -80 0
83 81 0
-83 -81 0
112 -82 0
113 -82 0
-112 -113 82 0
114 -83 0
115 -83 0
-114 -115 83 0
86 84 0
-86 -84 0
116 -85 0
101 -85 0
-116 -101 85 0
102 -86 0
119 -86 0
-102 -119 86 0
85 87 0
-85 -87 0
90 88 0
-90 -88 0
91 89 0
-91 -89 0
104 -90 0
121 -90 0
-104 -121 90 0
122 -91 0
107 -91 0
-122 -107 91 0
124 -92 0
109 -92 0
-124 -109 92 0
95 93 0
-95 -93 0
92 94 0
-92 -94 0
110 -95 0
127 -95 0
-110 -127 95 0
98 96 0
-98 -96 0
99 97 0
-99 -97 0
112 -98 0
129 -98 0
-112 -129 98 0
130 -99 0
115 -99 0
-130 -115 99 0
132 100 0
-132 -100 0
133 103 0
-133 -103 0
134 105 0
-134 -105 0
135 106 0
-135 -106 0
136 108 0
-136 -108 0
137 111 0
-137 -111 0
138 113 0
-138 -113 0
139 114 0
-139 -114 0
132 116 0
-132 -116 0
133 119 0
-133 -119 0
134 121 0
-134 -121 0
135 122 0
-135 -122 0
136 124 0
-136 -124 0
137 127 0
-137 -127 0
138 129 0
-138 -129 0
139 130 0
-139 -130 0
1 0
